<?xml version = "1.0" standalone="yes"?>
<!-- This file has been generated by DOcplex version 2.23.222  -->
<CPLEXSolution version="1.0">
 <header
   problemName="CVRP"
   objectiveValue="11722.9"
  />
 <variables>
  <variable name="x_0_3" index="2" value="1.00000"/>
  <variable name="x_0_4" index="3" value="1.00000"/>
  <variable name="x_0_6" index="5" value="1.00000"/>
  <variable name="x_0_7" index="6" value="1.00000"/>
  <variable name="x_0_10" index="9" value="1.00000"/>
  <variable name="x_0_11" index="10" value="1.00000"/>
  <variable name="x_0_12" index="11" value="1.00000"/>
  <variable name="x_0_14" index="13" value="1.00000"/>
  <variable name="x_0_15" index="14" value="1.00000"/>
  <variable name="x_1_0" index="15" value="1.00000"/>
  <variable name="x_2_0" index="30" value="1.00000"/>
  <variable name="x_3_0" index="45" value="1.00000"/>
  <variable name="x_4_5" index="64" value="1.00000"/>
  <variable name="x_5_0" index="75" value="1.00000"/>
  <variable name="x_6_9" index="98" value="1.00000"/>
  <variable name="x_7_13" index="117" value="1.00000"/>
  <variable name="x_8_1" index="121" value="1.00000"/>
  <variable name="x_9_0" index="135" value="1.00000"/>
  <variable name="x_10_8" index="158" value="1.00000"/>
  <variable name="x_11_2" index="167" value="1.00000"/>
  <variable name="x_12_0" index="180" value="1.00000"/>
  <variable name="x_13_0" index="195" value="1.00000"/>
  <variable name="x_14_0" index="210" value="1.00000"/>
  <variable name="x_15_0" index="225" value="1.00000"/>
  <variable name="u_1" index="240" value="78.00000"/>
  <variable name="u_2" index="241" value="78.00000"/>
  <variable name="u_3" index="242" value="48.00000"/>
  <variable name="u_4" index="243" value="42.00000"/>
  <variable name="u_5" index="244" value="75.00000"/>
  <variable name="u_6" index="245" value="61.00000"/>
  <variable name="u_7" index="246" value="35.00000"/>
  <variable name="u_8" index="247" value="20.00000"/>
  <variable name="u_9" index="248" value="77.00000"/>
  <variable name="u_10" index="249" value="14.00000"/>
  <variable name="u_11" index="250" value="13.00000"/>
  <variable name="u_12" index="251" value="79.00000"/>
  <variable name="u_13" index="252" value="73.00000"/>
  <variable name="u_14" index="253" value="69.00000"/>
  <variable name="u_15" index="254" value="35.00000"/>
 </variables>
</CPLEXSolution>
